c cnf generated by mark.reason.ac.CompilerAce written by Mark Chavira
c
c Following are a few statistics:
c
c     Number of potentials               : 10
c     Number of constant potentials      : 0
c     Number of root potentials          : 1
c     Number of zero-one root potentials : 0
c     Number of literals                 : 144
c
p cnf 56 56
1 2 0
-2 -1 0
-2 3 0
-1 4 0
5 6 0
-6 -5 0
-6 -1 7 0
-5 -2 8 0
-6 -2 9 0
-5 -1 10 0
11 12 0
-12 -11 0
-12 -1 13 0
-12 -2 14 0
-11 -2 15 0
-11 -1 16 0
17 18 0
-18 -17 0
-18 -1 19 0
-17 -2 20 0
-18 -2 21 0
-17 -1 22 0
23 24 0
-24 -23 0
-24 -1 25 0
-2 26 0
-23 -1 27 0
28 29 0
-29 -28 0
-29 -1 30 0
-29 -2 31 0
-28 -2 32 0
-28 -1 33 0
34 35 0
-35 -34 0
-35 -1 36 0
-34 -2 37 0
-35 -2 38 0
-34 -1 39 0
40 41 0
-41 -40 0
-41 -1 42 0
-40 -2 43 0
-41 -2 44 0
-40 -1 45 0
46 47 0
-47 -46 0
-47 -1 48 0
-47 -2 49 0
-46 -2 50 0
-46 -1 51 0
52 53 0
-53 -52 0
-53 -1 54 0
-2 55 0
-52 -1 56 0
